data/solutions/planning/wellformed/hard/weighting/wellformed_hard_instance19_cplex.sol
Elapsed time: 4.72
Nodes explored: 2257
Nodes left: 886
Relative gap: 0.01
Upper bound: 25749930.0
Lower bound: 25747376
C[0]=25174.0
C[1]=25168.0
C[2]=25168.0
C[3]=25168.0
C[4]=25168.0
C[5]=25168.0
C[6]=25168.0
C[7]=25168.0
C[8]=25167.0
C[9]=25164.0
y[0]=2
y[1]=4
y[2]=5
y[3]=2
y[4]=4
y[5]=3
y[6]=7
y[7]=9
y[8]=6
y[9]=1
y[10]=9
y[11]=6
y[12]=3
y[13]=9
y[14]=1
y[15]=6
y[16]=6
y[17]=4
y[18]=4
y[19]=6
y[20]=2
y[21]=4
y[22]=4
y[23]=4
y[24]=3
y[25]=0
y[26]=0
y[27]=2
y[28]=4
y[29]=1
y[30]=3
y[31]=4
y[32]=3
y[33]=8
y[34]=2
y[35]=6
y[36]=8
y[37]=4
y[38]=3
y[39]=4
y[40]=3
y[41]=3
y[42]=8
y[43]=7
y[44]=0
y[45]=7
y[46]=0
y[47]=2
y[48]=7
y[49]=7
y[50]=5
y[51]=9
y[52]=0
y[53]=3
y[54]=9
y[55]=2
y[56]=1
y[57]=9
y[58]=1
y[59]=2
y[60]=4
y[61]=9
y[62]=0
y[63]=5
y[64]=3
y[65]=2
y[66]=0
y[67]=4
y[68]=7
y[69]=6
y[70]=5
y[71]=7
y[72]=3
y[73]=5
y[74]=5
y[75]=4
y[76]=4
y[77]=1
y[78]=2
y[79]=1
y[80]=4
y[81]=0
y[82]=2
y[83]=7
y[84]=1
y[85]=0
y[86]=2
y[87]=4
y[88]=4
y[89]=3
y[90]=1
y[91]=4
y[92]=7
y[93]=8
y[94]=6
y[95]=8
y[96]=2
y[97]=6
y[98]=3
y[99]=0
y[100]=3
y[101]=6
y[102]=6
y[103]=4
y[104]=5
y[105]=7
y[106]=4
y[107]=4
y[108]=0
y[109]=0
y[110]=0
y[111]=2
y[112]=5
y[113]=1
y[114]=4
y[115]=4
y[116]=2
y[117]=9
y[118]=7
y[119]=9
y[120]=9
y[121]=5
y[122]=3
y[123]=1
y[124]=3
y[125]=0
y[126]=4
y[127]=6
y[128]=4
y[129]=4
y[130]=9
y[131]=7
y[132]=2
y[133]=8
y[134]=3
y[135]=6
y[136]=9
y[137]=6
y[138]=0
y[139]=7
y[140]=0
y[141]=7
y[142]=1
y[143]=5
y[144]=7
y[145]=8
y[146]=3
y[147]=7
y[148]=6
y[149]=7
y[150]=0
y[151]=9
y[152]=5
y[153]=9
y[154]=9
y[155]=5
y[156]=2
y[157]=3
y[158]=0
y[159]=6
y[160]=1
y[161]=7
y[162]=4
y[163]=0
y[164]=2
y[165]=6
y[166]=3
y[167]=2
y[168]=4
y[169]=4
y[170]=1
y[171]=0
y[172]=4
y[173]=1
y[174]=8
y[175]=7
y[176]=1
y[177]=2
y[178]=2
y[179]=4
y[180]=7
y[181]=0
y[182]=5
y[183]=0
y[184]=2
y[185]=0
y[186]=0
y[187]=7
y[188]=0
y[189]=0
y[190]=1
y[191]=3
y[192]=8
y[193]=3
y[194]=3
y[195]=2
y[196]=0
y[197]=8
y[198]=4
y[199]=8
y[200]=7
y[201]=1
y[202]=3
y[203]=6
y[204]=3
y[205]=9
y[206]=8
y[207]=7
y[208]=6
y[209]=8
y[210]=4
y[211]=8
y[212]=9
y[213]=9
y[214]=0
y[215]=1
y[216]=0
y[217]=5
y[218]=2
y[219]=1
y[220]=8
y[221]=1
y[222]=0
y[223]=7
y[224]=2
y[225]=9
y[226]=4
y[227]=2
y[228]=0
y[229]=4
y[230]=1
y[231]=3
y[232]=2
y[233]=9
y[234]=8
y[235]=1
y[236]=0
y[237]=2
y[238]=2
y[239]=1
y[240]=3
y[241]=2
y[242]=5
y[243]=4
y[244]=3
y[245]=6
y[246]=6
y[247]=8
y[248]=7
y[249]=3
y[250]=0
y[251]=7
y[252]=3
y[253]=0
y[254]=7
y[255]=8
y[256]=9
y[257]=4
y[258]=1
y[259]=9
y[260]=2
y[261]=5
y[262]=5
y[263]=6
y[264]=5
y[265]=6
y[266]=7
y[267]=8
y[268]=2
y[269]=2
y[270]=0
y[271]=6
y[272]=0
y[273]=5
y[274]=9
y[275]=0
y[276]=8
y[277]=2
y[278]=1
y[279]=7
y[280]=5
y[281]=7
y[282]=0
y[283]=2
y[284]=0
y[285]=6
y[286]=0
y[287]=1
y[288]=7
y[289]=5
y[290]=6
y[291]=0
y[292]=6
y[293]=4
y[294]=6
y[295]=1
y[296]=6
y[297]=3
y[298]=6
y[299]=7
y[300]=7
y[301]=5
y[302]=8
y[303]=8
y[304]=6
y[305]=0
y[306]=8
y[307]=2
y[308]=8
y[309]=9
y[310]=6
y[311]=3
y[312]=6
y[313]=7
y[314]=8
y[315]=5
y[316]=8
y[317]=0
y[318]=8
y[319]=8
y[320]=0
y[321]=1
y[322]=8
y[323]=2
y[324]=8
y[325]=2
y[326]=8
y[327]=0
y[328]=7
y[329]=3
y[330]=8
y[331]=8
y[332]=9
y[333]=9
y[334]=3
y[335]=5
y[336]=4
y[337]=2
y[338]=5
y[339]=7
y[340]=2
y[341]=3
y[342]=6
y[343]=8
y[344]=5
y[345]=5
y[346]=0
y[347]=1
y[348]=6
y[349]=0
y[350]=7
y[351]=5
y[352]=1
y[353]=6
y[354]=7
y[355]=0
y[356]=0
y[357]=2
y[358]=1
y[359]=5
y[360]=7
y[361]=3
y[362]=9
y[363]=1
y[364]=3
y[365]=8
y[366]=6
y[367]=9
y[368]=9
y[369]=8
y[370]=8
y[371]=1
y[372]=2
y[373]=6
y[374]=9
y[375]=5
y[376]=3
y[377]=5
y[378]=0
y[379]=8
y[380]=8
y[381]=8
y[382]=7
y[383]=1
y[384]=9
y[385]=0
y[386]=0
y[387]=6
y[388]=9
y[389]=3
y[390]=0
y[391]=8
y[392]=1
y[393]=0
y[394]=5
y[395]=8
y[396]=2
y[397]=1
y[398]=4
y[399]=7
y[400]=7
y[401]=7
y[402]=7
y[403]=1
y[404]=0
y[405]=0
y[406]=3
y[407]=7
y[408]=3
y[409]=0
y[410]=9
y[411]=5
y[412]=2
y[413]=0
y[414]=1
y[415]=1
y[416]=1
y[417]=3
y[418]=5
y[419]=3
y[420]=3
y[421]=8
y[422]=3
y[423]=5
y[424]=8
y[425]=6
y[426]=1
y[427]=0
y[428]=1
y[429]=5
y[430]=2
y[431]=6
y[432]=7
y[433]=1
y[434]=0
y[435]=6
y[436]=0
y[437]=5
y[438]=5
y[439]=7
y[440]=2
y[441]=5
y[442]=3
y[443]=9
y[444]=6
y[445]=1
y[446]=6
y[447]=5
y[448]=2
y[449]=7
y[450]=0
y[451]=9
y[452]=1
y[453]=6
y[454]=2
y[455]=5
y[456]=6
y[457]=0
y[458]=0
y[459]=9
y[460]=4
y[461]=3
y[462]=6
y[463]=4
y[464]=4
y[465]=6
y[466]=1
y[467]=3
y[468]=2
y[469]=0
y[470]=3
y[471]=4
y[472]=6
y[473]=6
y[474]=1
y[475]=9
y[476]=4
y[477]=0
y[478]=9
y[479]=0
y[480]=0
y[481]=4
y[482]=0
y[483]=7
y[484]=7
y[485]=1
y[486]=0
y[487]=0
y[488]=3
y[489]=0
y[490]=4
y[491]=7
y[492]=5
y[493]=4
y[494]=4
y[495]=4
y[496]=2
y[497]=2
y[498]=0
y[499]=5
